NAME /Users/henri/Research/solvers/instances/idol-instances/robust/collection/cbp_Subramanyam_et_al_2020/CapBud_N25_6/models/uncertain_technology_matrix/
ROWS
 N  OBJ
 L  capacity
 L  c_3935
 L  c_3936
 L  c_3937
 L  c_3938
 L  c_3939
 L  c_3940
 L  c_3941
 L  c_3942
 L  c_3943
 L  c_3944
 L  c_3945
 L  c_3946
 L  c_3947
 L  c_3948
 L  c_3949
 L  c_3950
 L  c_3951
 L  c_3952
 L  c_3953
 L  c_3954
 L  c_3955
 L  c_3956
 L  c_3957
 L  c_3958
 L  c_3959
COLUMNS
    MARKER    'MARKER'                 'INTORG'
    x_0        OBJ        5.98488
    x_0        c_3935     1
    x_0        capacity   1.19698
    x_1        OBJ        7.67272
    x_1        c_3936     1
    x_1        capacity   1.53454
    x_2        OBJ        2.48364
    x_2        c_3937     1
    x_2        capacity   0.496728
    x_3        OBJ        7.48785
    x_3        c_3938     1
    x_3        capacity   1.49757
    x_4        OBJ        4.42878
    x_4        c_3939     1
    x_4        capacity   0.885756
    x_5        OBJ        0.348125
    x_5        c_3940     1
    x_5        capacity   0.0696249
    x_6        OBJ        1.31671
    x_6        c_3941     1
    x_6        capacity   0.263342
    x_7        OBJ        6.24488
    x_7        c_3942     1
    x_7        capacity   1.24898
    x_8        OBJ        2.26878
    x_8        c_3943     1
    x_8        capacity   0.453756
    x_9        OBJ        9.17193
    x_9        c_3944     1
    x_9        capacity   1.83439
    x_10       OBJ        7.6776
    x_10       c_3945     1
    x_10       capacity   1.53552
    x_11       OBJ        9.63329
    x_11       c_3946     1
    x_11       capacity   1.92666
    x_12       OBJ        0.105248
    x_12       c_3947     1
    x_12       capacity   0.0210496
    x_13       OBJ        8.6066
    x_13       c_3948     1
    x_13       capacity   1.72132
    x_14       OBJ        9.07908
    x_14       c_3949     1
    x_14       capacity   1.81582
    x_15       OBJ        9.64683
    x_15       c_3950     1
    x_15       capacity   1.92937
    x_16       OBJ        5.76359
    x_16       c_3951     1
    x_16       capacity   1.15272
    x_17       OBJ        4.38343
    x_17       c_3952     1
    x_17       capacity   0.876686
    x_18       OBJ        4.1731
    x_18       c_3953     1
    x_18       capacity   0.834619
    x_19       OBJ        4.74648
    x_19       c_3954     1
    x_19       capacity   0.949296
    x_20       OBJ        6.69644
    x_20       c_3955     1
    x_20       capacity   1.33929
    x_21       OBJ        7.96929
    x_21       c_3956     1
    x_21       capacity   1.59386
    x_22       OBJ        0.793036
    x_22       c_3957     1
    x_22       capacity   0.158607
    x_23       OBJ        2.69506
    x_23       c_3958     1
    x_23       capacity   0.539012
    x_24       OBJ        7.35032
    x_24       c_3959     1
    x_24       capacity   1.47006
    y_0        OBJ        4.7879
    y_0        c_3935     1
    y_0        capacity   1.19698
    y_1        OBJ        6.13817
    y_1        c_3936     1
    y_1        capacity   1.53454
    y_2        OBJ        1.98691
    y_2        c_3937     1
    y_2        capacity   0.496728
    y_3        OBJ        5.99028
    y_3        c_3938     1
    y_3        capacity   1.49757
    y_4        OBJ        3.54302
    y_4        c_3939     1
    y_4        capacity   0.885756
    y_5        OBJ        0.2785
    y_5        c_3940     1
    y_5        capacity   0.0696249
    y_6        OBJ        1.05337
    y_6        c_3941     1
    y_6        capacity   0.263342
    y_7        OBJ        4.9959
    y_7        c_3942     1
    y_7        capacity   1.24898
    y_8        OBJ        1.81502
    y_8        c_3943     1
    y_8        capacity   0.453756
    y_9        OBJ        7.33754
    y_9        c_3944     1
    y_9        capacity   1.83439
    y_10       OBJ        6.14208
    y_10       c_3945     1
    y_10       capacity   1.53552
    y_11       OBJ        7.70663
    y_11       c_3946     1
    y_11       capacity   1.92666
    y_12       OBJ        0.0841985
    y_12       c_3947     1
    y_12       capacity   0.0210496
    y_13       OBJ        6.88528
    y_13       c_3948     1
    y_13       capacity   1.72132
    y_14       OBJ        7.26326
    y_14       c_3949     1
    y_14       capacity   1.81582
    y_15       OBJ        7.71746
    y_15       c_3950     1
    y_15       capacity   1.92937
    y_16       OBJ        4.61087
    y_16       c_3951     1
    y_16       capacity   1.15272
    y_17       OBJ        3.50674
    y_17       c_3952     1
    y_17       capacity   0.876686
    y_18       OBJ        3.33848
    y_18       c_3953     1
    y_18       capacity   0.834619
    y_19       OBJ        3.79718
    y_19       c_3954     1
    y_19       capacity   0.949296
    y_20       OBJ        5.35715
    y_20       c_3955     1
    y_20       capacity   1.33929
    y_21       OBJ        6.37543
    y_21       c_3956     1
    y_21       capacity   1.59386
    y_22       OBJ        0.634429
    y_22       c_3957     1
    y_22       capacity   0.158607
    y_23       OBJ        2.15605
    y_23       c_3958     1
    y_23       capacity   0.539012
    y_24       OBJ        5.88026
    y_24       c_3959     1
    y_24       capacity   1.47006
    MARKER    'MARKER'                 'INTEND'
RHS
    RHS       capacity   68.3638
    RHS       c_3935     1
    RHS       c_3936     1
    RHS       c_3937     1
    RHS       c_3938     1
    RHS       c_3939     1
    RHS       c_3940     1
    RHS       c_3941     1
    RHS       c_3942     1
    RHS       c_3943     1
    RHS       c_3944     1
    RHS       c_3945     1
    RHS       c_3946     1
    RHS       c_3947     1
    RHS       c_3948     1
    RHS       c_3949     1
    RHS       c_3950     1
    RHS       c_3951     1
    RHS       c_3952     1
    RHS       c_3953     1
    RHS       c_3954     1
    RHS       c_3955     1
    RHS       c_3956     1
    RHS       c_3957     1
    RHS       c_3958     1
    RHS       c_3959     1
BOUNDS
 LI BND       x_0        0
 UI BND       x_0        1
 LI BND       x_1        0
 UI BND       x_1        1
 LI BND       x_2        0
 UI BND       x_2        1
 LI BND       x_3        0
 UI BND       x_3        1
 LI BND       x_4        0
 UI BND       x_4        1
 LI BND       x_5        0
 UI BND       x_5        1
 LI BND       x_6        0
 UI BND       x_6        1
 LI BND       x_7        0
 UI BND       x_7        1
 LI BND       x_8        0
 UI BND       x_8        1
 LI BND       x_9        0
 UI BND       x_9        1
 LI BND       x_10       0
 UI BND       x_10       1
 LI BND       x_11       0
 UI BND       x_11       1
 LI BND       x_12       0
 UI BND       x_12       1
 LI BND       x_13       0
 UI BND       x_13       1
 LI BND       x_14       0
 UI BND       x_14       1
 LI BND       x_15       0
 UI BND       x_15       1
 LI BND       x_16       0
 UI BND       x_16       1
 LI BND       x_17       0
 UI BND       x_17       1
 LI BND       x_18       0
 UI BND       x_18       1
 LI BND       x_19       0
 UI BND       x_19       1
 LI BND       x_20       0
 UI BND       x_20       1
 LI BND       x_21       0
 UI BND       x_21       1
 LI BND       x_22       0
 UI BND       x_22       1
 LI BND       x_23       0
 UI BND       x_23       1
 LI BND       x_24       0
 UI BND       x_24       1
 LI BND       y_0        0
 UI BND       y_0        1
 LI BND       y_1        0
 UI BND       y_1        1
 LI BND       y_2        0
 UI BND       y_2        1
 LI BND       y_3        0
 UI BND       y_3        1
 LI BND       y_4        0
 UI BND       y_4        1
 LI BND       y_5        0
 UI BND       y_5        1
 LI BND       y_6        0
 UI BND       y_6        1
 LI BND       y_7        0
 UI BND       y_7        1
 LI BND       y_8        0
 UI BND       y_8        1
 LI BND       y_9        0
 UI BND       y_9        1
 LI BND       y_10       0
 UI BND       y_10       1
 LI BND       y_11       0
 UI BND       y_11       1
 LI BND       y_12       0
 UI BND       y_12       1
 LI BND       y_13       0
 UI BND       y_13       1
 LI BND       y_14       0
 UI BND       y_14       1
 LI BND       y_15       0
 UI BND       y_15       1
 LI BND       y_16       0
 UI BND       y_16       1
 LI BND       y_17       0
 UI BND       y_17       1
 LI BND       y_18       0
 UI BND       y_18       1
 LI BND       y_19       0
 UI BND       y_19       1
 LI BND       y_20       0
 UI BND       y_20       1
 LI BND       y_21       0
 UI BND       y_21       1
 LI BND       y_22       0
 UI BND       y_22       1
 LI BND       y_23       0
 UI BND       y_23       1
 LI BND       y_24       0
 UI BND       y_24       1
ENDATA
